NAME : cgl_66.8376.tour
COMMENT : Length = 8376
COMMENT : Found by LKH-3 [Keld Helsgaun] Thu Jun 26 21:26:49 2025
TYPE : TOUR
DIMENSION : 67
TOUR_SECTION
16
26
25
5
14
8
7
6
13
9
12
29
23
32
15
28
30
24
31
17
19
27
67
66
65
64
60
63
61
62
59
54
52
53
58
57
55
56
51
48
49
50
47
45
46
44
43
40
39
41
42
38
1
3
2
37
36
35
4
10
11
33
34
21
22
18
20
-1
EOF
